Set parameter Username
Academic license - for non-commercial use only - expires 2024-10-29
Set parameter LazyConstraints to value 1
Set parameter TimeLimit to value 600
Gurobi Optimizer version 10.0.0 build v10.0.0rc2 (linux64)

CPU model: AMD FX(tm)-4300 Quad-Core Processor, instruction set [SSE2|AVX]
Thread count: 2 physical cores, 4 logical processors, using up to 4 threads

Optimize a model with 2750 rows, 625 columns and 3142 nonzeros
Model fingerprint: 0x5de996a6
Variable types: 0 continuous, 625 integer (625 binary)
Coefficient statistics:
  Matrix range     [1e+00, 1e+00]
  Objective range  [1e+00, 1e+01]
  Bounds range     [1e+00, 1e+00]
  RHS range        [1e+00, 1e+00]
Presolve removed 2619 rows and 88 columns
Presolve time: 0.00s
Presolved: 131 rows, 537 columns, 430 nonzeros
Variable types: 0 continuous, 537 integer (537 binary)

Root relaxation: objective 8.020000e+02, 122 iterations, 0.00 seconds (0.00 work units)

    Nodes    |    Current Node    |     Objective Bounds      |     Work
 Expl Unexpl |  Obj  Depth IntInf | Incumbent    BestBd   Gap | It/Node Time

     0     0  802.00000    0    -          -  802.00000      -     -    4s
     0     0  803.00000    0    -          -  803.00000      -     -    5s
     0     0  804.00000    0    -          -  804.00000      -     -    5s
     0     0  805.00000    0    -          -  805.00000      -     -    6s
     0     0  805.50000    0    5          -  805.50000      -     -    6s
     0     0 1168.00000    0    -          - 1168.00000      -     -   14s
     0     0 1169.00000    0    -          - 1169.00000      -     -   15s
     0     0 1169.00000    0    -          - 1169.00000      -     -   16s
     0     0 1170.00000    0    -          - 1170.00000      -     -   17s
H    0     0                    1881.0000000 1170.00000  37.8%     -   18s
     0     0 1170.00000    0    5 1881.00000 1170.00000  37.8%     -   18s
     0     0 1311.00000    0    - 1881.00000 1311.00000  30.3%     -   20s
     0     0 1311.00000    0    - 1881.00000 1311.00000  30.3%     -   21s
     0     0 1311.00000    0    - 1881.00000 1311.00000  30.3%     -   22s
     0     0 1311.00000    0    - 1881.00000 1311.00000  30.3%     -   23s
     0     0 1311.00000    0    - 1881.00000 1311.00000  30.3%     -   24s
     0     0 1311.00000    0    - 1881.00000 1311.00000  30.3%     -   24s
     0     0 1311.00000    0    - 1881.00000 1311.00000  30.3%     -   25s
     0     0 1311.00000    0    - 1881.00000 1311.00000  30.3%     -   26s
     0     0 1311.00000    0    - 1881.00000 1311.00000  30.3%     -   27s
     0     0 1311.00000    0    - 1881.00000 1311.00000  30.3%     -   28s
     0     0 1311.00000    0    - 1881.00000 1311.00000  30.3%     -   29s
     0     0 1311.00000    0    - 1881.00000 1311.00000  30.3%     -   30s
     0     0 1311.00000    0    - 1881.00000 1311.00000  30.3%     -   31s
     0     0 1311.00000    0    - 1881.00000 1311.00000  30.3%     -   32s
     0     0 1311.00000    0    - 1881.00000 1311.00000  30.3%     -   33s
H    0     0                    1792.0000000 1311.00000  26.8%     -   34s
     0     0 1311.00000    0    5 1792.00000 1311.00000  26.8%     -   34s
     0     0 1353.00000    0    - 1792.00000 1353.00000  24.5%     -   47s
     0     0 1353.00000    0    - 1792.00000 1353.00000  24.5%     -   47s
     0     0 1353.00000    0    - 1792.00000 1353.00000  24.5%     -   48s
H    0     0                    1727.0000000 1353.00000  21.7%     -   49s
     0     0 1353.00000    0    4 1727.00000 1353.00000  21.7%     -   49s
H    0     0                    1720.0000000 1353.00000  21.3%     -   51s
     0     0 1353.00000    0    4 1720.00000 1353.00000  21.3%     -   70s
H    0     2                    1712.0000000 1353.00000  21.0%     -   72s
     0     2 1382.00000    0    7 1712.00000 1382.00000  19.3%     -   72s
H    1     0                    1700.0000000 1383.00000  18.6%   0.0   75s
H    6     3                    1697.0000000 1420.00000  16.3%  69.5   82s
H    7     6                    1694.0000000 1420.00000  16.2%  71.0   85s
    11    12 1451.58730    3   15 1694.00000 1446.00000  14.6%   113   91s
    15    16 1452.50000    4   12 1694.00000 1446.51163  14.6%   112   97s
    23    26 1452.50000    7   12 1694.00000 1448.00000  14.5%  78.7  108s
    29    32 1452.50000    9    7 1694.00000 1448.00000  14.5%  64.8  115s
    35    40 1452.50000   12    8 1694.00000 1448.00000  14.5%  56.0  123s
H   36    40                    1693.0000000 1448.00000  14.5%  54.4  125s
H   43    50                    1692.0000000 1448.00000  14.4%  47.1  135s
H   53    62                    1691.0000000 1448.00000  14.4%  40.1  149s
H   65    76                    1690.0000000 1448.00000  14.3%  34.7  165s
    79    90 1452.75000   29   15 1690.00000 1448.00000  14.3%  31.8  181s
H   91    90                    1689.0000000 1448.00000  14.3%  28.8  197s
   110   129 1453.66667   43    7 1689.00000 1448.00000  14.3%  25.7  220s
   132   152 1453.57143   50    8 1689.00000 1448.00000  14.3%  23.2  246s
H  150   152                    1686.0000000 1448.00000  14.1%  21.2  267s
   155   182 1454.28571   61    9 1686.00000 1448.00000  14.1%  21.5  273s
   187   219 1455.36364   75   11 1686.00000 1448.00000  14.1%  19.1  310s
   225   256 1456.16667   90   12 1686.00000 1448.00000  14.1%  16.6  352s
   263   305 1456.57143  103   13 1686.00000 1448.00000  14.1%  14.9  395s
   311   352 1457.71429  124    9 1686.00000 1448.00000  14.1%  13.5  450s
H  373   360                    1681.0000000 1448.00000  13.9%  12.3  519s
   374   394 1460.50000  151    5 1681.00000 1448.00000  13.9%  12.3  521s
   432   458 1464.80000  177    8 1681.00000 1448.00000  13.9%  12.0  586s

Cutting planes:
  User: 13
  MIR: 1
  Lazy constraints: 104

Explored 508 nodes (5938 simplex iterations) in 671.27 seconds (0.38 work units)
Thread count was 4 (of 4 available processors)

Solution count 10: 1681 1686 1689 ... 1700

Time limit reached
Best objective 1.681000000000e+03, best bound 1.448000000000e+03, gap 13.8608%

User-callback calls 1615, time in user-callback 670.67 sec
